10 45
1 2 25
1 3 16
1 4 27
1 5 17
1 6 23
1 7 13
1 8 12
1 9 1
1 10 7
2 3 18
2 4 24
2 5 13
2 6 28
2 7 16
2 8 29
2 9 0
2 10 13
3 4 12
3 5 29
3 6 4
3 7 2
3 8 12
3 9 1
3 10 10
4 5 5
4 6 21
4 7 7
4 8 20
4 9 17
4 10 27
5 6 24
5 7 24
5 8 17
5 9 3
5 10 6
6 7 11
6 8 18
6 9 18
6 10 0
7 8 29
7 9 15
7 10 0
8 9 23
8 10 27
9 10 6
